
Gurobi 9.1.2 (linux64) logging started Tue Apr 12 19:51:41 2022

Changed value of parameter LogFile to ls_sym_v-(6, 0).log
   Prev:   Default: 
Changed value of parameter MIPFocus to 1
   Prev: 0  Min: 0  Max: 3  Default: 0
Changed value of parameter TimeLimit to 10800.0
   Prev: inf  Min: 0.0  Max: inf  Default: inf
Warning: variable name "X[(2, 2),(5, 2)]" has a space
Warning: constraint name "flow-constr-t0-v(6, 0)" has a space
Warning: to let Gurobi read it back, use rlp format
Gurobi Optimizer version 9.1.2 build v9.1.2rc0 (linux64)
Thread count: 32 physical cores, 64 logical processors, using up to 32 threads
Optimize a model with 4855 rows, 4352 columns and 16616 nonzeros
Model fingerprint: 0xefe8af2f
Variable types: 512 continuous, 3840 integer (3840 binary)
Coefficient statistics:
  Matrix range     [1e+00, 7e+04]
  Objective range  [1e-01, 1e-01]
  Bounds range     [1e+00, 3e+04]
  RHS range        [1e+00, 7e+04]
Presolve removed 283 rows and 288 columns
Presolve time: 0.11s
Presolved: 4572 rows, 4064 columns, 22227 nonzeros
Variable types: 512 continuous, 3552 integer (3552 binary)

Root relaxation: objective 6.400000e+01, 154 iterations, 0.01 seconds

    Nodes    |    Current Node    |     Objective Bounds      |     Work
 Expl Unexpl |  Obj  Depth IntInf | Incumbent    BestBd   Gap | It/Node Time

     0     0   64.00000    0   40          -   64.00000      -     -    0s
     0     0   64.00000    0   74          -   64.00000      -     -    0s
     0     0   64.00000    0   86          -   64.00000      -     -    0s
     0     0   64.00000    0   44          -   64.00000      -     -    0s
     0     0   64.00000    0   54          -   64.00000      -     -    0s
     0     0   64.00000    0   45          -   64.00000      -     -    0s
     0     0   64.00000    0   63          -   64.00000      -     -    0s
     0     0   64.00000    0   57          -   64.00000      -     -    0s
     0     0   64.00000    0   61          -   64.00000      -     -    0s
H    0     0                    286851.40000   64.00000   100%     -    0s
     0     0   64.00000    0   49 286851.400   64.00000   100%     -    0s
H    0     0                     110.3750000   64.00000  42.0%     -    1s
H    0     2                     104.6250000   64.00000  38.8%     -    1s
     0     2   64.00000    0   48  104.62500   64.00000  38.8%     -    1s
H    1     4                     101.1250000   64.00000  36.7%   671    1s
H   29    56                      96.3750000   64.00000  33.6%  35.8    1s
H   34    56                      95.8750000   64.00000  33.2%  33.1    1s
H   44    56                      94.6625000   64.00000  32.4%  29.0    1s
H   89   118                      91.4404762   64.00000  30.0%  18.6    2s
H   92   118                      91.0000000   64.00000  29.7%  18.0    2s
H   96   118                      89.1250000   64.00000  28.2%  17.3    2s
H  121   150                      88.0941558   64.00000  27.4%  14.2    2s
H  185   213                      86.3750000   64.00000  25.9%  10.4    2s
H  186   213                      85.6250000   64.00000  25.3%  10.3    2s
H  187   213                      85.1111111   64.00000  24.8%  10.3    2s
H  190   213                      84.7304687   64.00000  24.5%  10.2    2s
H  208   213                      83.7500000   64.00000  23.6%   9.8    2s
H  218   244                      83.5000000   64.00000  23.4%   9.4    3s
H  224   244                      83.3125000   64.00000  23.2%   9.2    3s
H  229   244                      83.1250000   64.00000  23.0%   9.2    3s
H  246   244                      82.6702128   64.00000  22.6%   8.8    3s

Cutting planes:
  Cover: 29
  Implied bound: 34
  Clique: 6
  Flow cover: 34
  Relax-and-lift: 4

Explored 251 nodes (10936 simplex iterations) in 3.46 seconds
Thread count was 32 (of 64 available processors)

Solution count 10: 82.6702 83.125 83.3125 ... 88.0942

Solve interrupted
Best objective 8.267021276595e+01, best bound 6.400000000000e+01, gap 22.5840%
